#######################



#######################
Set parameter TimeLimit to value 500
Set parameter SoftMemLimit to value 125
Set parameter LogFile to value 1003-MIPFocus0-Presolve2-TimeLimit500-k16x240-3.log
Set parameter Presolve to value 2
Set parameter Seed to value 13
Using license file /opt/gurobi/gurobi.lic

Gurobi Optimizer version 10.0.3 build v10.0.3rc0 (linux64)
Copyright (c) 2023, Gurobi Optimization, LLC

Read MPS format model from file /miplib2010/k16x240.mps.bz2
Reading time = 0.00 seconds
k16x240: 256 rows, 480 columns, 960 nonzeros

CPU model: Intel(R) Xeon(R) E-2388G CPU @ 3.20GHz, instruction set [SSE2|AVX|AVX2|AVX512]
Thread count: 8 physical cores, 16 logical processors, using up to 16 threads

Optimize a model with 256 rows, 480 columns and 960 nonzeros
Model fingerprint: 0x4e80885f
Variable types: 240 continuous, 240 integer (240 binary)
Coefficient statistics:
  Matrix range     [1e+00, 1e+03]
  Objective range  [1e+00, 1e+03]
  Bounds range     [1e+00, 1e+03]
  RHS range        [4e+00, 4e+02]
Found heuristic solution: objective 25767.000000
Presolve time: 0.00s
Presolved: 256 rows, 480 columns, 960 nonzeros
Variable types: 240 continuous, 240 integer (240 binary)
Root relaxation presolve removed 241 rows and 240 columns
Root relaxation presolved: 15 rows, 240 columns, 450 nonzeros


Root relaxation: objective 2.769838e+03, 16 iterations, 0.00 seconds (0.00 work units)

    Nodes    |    Current Node    |     Objective Bounds      |     Work
 Expl Unexpl |  Obj  Depth IntInf | Incumbent    BestBd   Gap | It/Node Time

     0     0 2769.83800    0   14 25767.0000 2769.83800  89.3%     -    0s
H    0     0                    11359.000000 2769.83800  75.6%     -    0s
H    0     0                    11213.000000 8084.69631  27.9%     -    0s
     0     0 8084.69631    0   26 11213.0000 8084.69631  27.9%     -    0s
H    0     0                    11079.000000 8084.69631  27.0%     -    0s
     0     0 8528.16906    0   24 11079.0000 8528.16906  23.0%     -    0s
     0     0 8539.15185    0   34 11079.0000 8539.15185  22.9%     -    0s
     0     0 8548.03675    0   29 11079.0000 8548.03675  22.8%     -    0s
H    0     0                    11061.000000 8548.03675  22.7%     -    0s
     0     0 8707.67202    0   35 11061.0000 8707.67202  21.3%     -    0s
H    0     0                    10923.000000 8707.67202  20.3%     -    0s
H    0     0                    10801.000000 8707.67202  19.4%     -    0s
     0     0 8756.82153    0   30 10801.0000 8756.82153  18.9%     -    0s
     0     0 8759.07726    0   27 10801.0000 8759.07726  18.9%     -    0s
     0     0 8844.99400    0   32 10801.0000 8844.99400  18.1%     -    0s
H    0     0                    10681.000000 8861.05500  17.0%     -    0s
     0     0 8861.05500    0   35 10681.0000 8861.05500  17.0%     -    0s
     0     0 8862.45262    0   36 10681.0000 8862.45262  17.0%     -    0s
     0     0 9001.90787    0   37 10681.0000 9001.90787  15.7%     -    0s
     0     0 9014.16431    0   36 10681.0000 9014.16431  15.6%     -    0s
     0     0 9019.76496    0   39 10681.0000 9019.76496  15.6%     -    0s
     0     0 9070.72226    0   31 10681.0000 9070.72226  15.1%     -    0s
     0     0 9083.82357    0   35 10681.0000 9083.82357  15.0%     -    0s
     0     0 9089.78993    0   38 10681.0000 9089.78993  14.9%     -    0s
     0     0 9109.72813    0   43 10681.0000 9109.72813  14.7%     -    0s
     0     0 9109.72813    0   43 10681.0000 9109.72813  14.7%     -    0s
     0     2 9109.72813    0   43 10681.0000 9109.72813  14.7%     -    0s
H   39    48                    10678.000000 9289.33126  13.0%  44.8    0s
H  125   144                    10674.000000 9289.33126  13.0%  33.0    0s
 29847 11720     cutoff   43      10674.0000 10003.9484  6.28%  27.1    5s
 64639 18740 10421.3889   34   19 10674.0000 10171.0595  4.71%  28.5   10s
 104367 20377     cutoff   32      10674.0000 10300.4231  3.50%  29.5   15s
 145437 14608     cutoff   47      10674.0000 10425.4893  2.33%  29.8   20s

Cutting planes:
  Gomory: 1
  Lift-and-project: 16
  Cover: 76
  Implied bound: 20
  MIR: 177
  Flow cover: 305
  Flow path: 57
  Inf proof: 3
  Zero half: 9
  Network: 59
  Relax-and-lift: 1

Explored 175306 nodes (5085386 simplex iterations) in 23.78 seconds (36.25 work units)
Thread count was 16 (of 16 available processors)

Solution count 10: 10674 10678 10681 ... 25767

Optimal solution found (tolerance 1.00e-04)
Best objective 1.067400000000e+04, best bound 1.067400000000e+04, gap 0.0000%
